N: 1000
R: 1000
Capacities: 84660
------
Total value: 228624
Total weight: 84656
Packed Items: [0, 1, 2, 3, 4, 5, 6, 7, 8, 9, 10, 11, 12, 13, 14, 15, 16, 17, 18, 19, 20, 21, 22, 23, 24, 25, 26, 27, 28, 29, 30, 31, 32, 33, 34, 35, 36, 37, 38, 39, 40, 41, 42, 43, 44, 45, 46, 47, 48, 49, 50, 51, 52, 53, 54, 55, 56, 57, 58, 59, 60, 61, 62, 63, 64, 65, 66, 67, 68, 69, 70, 71, 72, 73, 74, 75, 76, 77, 78, 79, 80, 81, 82, 83, 84, 85, 86, 87, 88, 89, 90, 91, 92, 93, 94, 95, 96, 97, 98, 99, 100, 101, 102, 103, 104, 105, 106, 107, 108, 109, 110, 111, 112, 113, 114, 115, 116, 117, 118, 119, 120, 121, 122, 123, 124, 125, 126, 127, 128, 129, 130, 131, 132, 133, 134, 135, 136, 137, 138, 139, 140, 141, 142, 143, 144, 145, 146, 147, 148, 149, 150, 151, 152, 153, 154, 155, 156, 157, 158, 159, 160, 161, 162, 163, 164, 165, 166, 167, 168, 169, 170, 171, 172, 173, 174, 175, 176, 177, 178, 179, 180, 181, 182, 183, 184, 185, 186, 187, 188, 189, 190, 191, 192, 193, 194, 195, 196, 197, 198, 199, 200, 201, 202, 203, 204, 205, 206, 208, 209, 210, 211, 212, 213, 214, 215, 217, 218, 221, 222, 223, 224, 225, 226, 231, 232, 233, 235, 236, 239, 240, 242, 245, 249, 252, 255, 261, 265, 267, 272, 280, 282, 284, 286, 290, 292, 295, 296, 297, 298, 300, 303, 306, 307, 309, 310, 313, 320, 321, 325, 326, 327, 328, 330, 331, 332, 333, 338, 344, 349, 350, 351, 353, 354, 355, 361, 365, 369, 371, 372, 376, 377, 380, 381, 383, 386, 388, 389, 391, 396, 397, 398, 399, 400, 401, 402, 403, 404, 407, 411, 412, 413, 414, 415, 416, 417, 418, 419, 422, 425, 426, 427, 430, 432, 433, 435, 440, 441, 444, 447, 449, 452, 454, 456, 457, 459, 460, 463, 464, 471, 472, 478, 482, 483, 484, 485, 486, 487, 490, 493, 496, 498, 499, 500, 501, 504, 505, 508, 509, 510, 511, 512, 514, 516, 517, 519, 520, 521, 522, 523, 524, 526, 527, 528, 530, 531, 532, 533, 537, 538, 546, 547, 548, 549, 550, 551, 555, 558, 559, 560, 561, 563, 565, 566, 568, 569, 575, 579, 580, 587, 591, 592, 594, 598, 600, 602, 603, 604, 605, 606, 608, 612, 614, 616, 624, 626, 627, 628, 629, 631, 633, 635, 640, 641, 645, 649, 650, 651, 653, 655, 656, 657, 662, 663, 667, 668, 669, 671, 673, 675, 677, 678, 679, 680, 682, 683, 684, 685, 687, 688, 689, 691, 692, 695, 697, 699, 700, 701, 703, 704, 708, 709, 716, 717, 720, 723, 724, 727, 729, 730, 735, 740, 741, 743, 744, 745, 746, 748, 749, 755, 756, 757, 758, 761, 762, 763, 766, 770, 771, 773, 775, 776, 778, 779, 780, 781, 783, 784, 785, 786, 789, 790, 793, 794, 796, 797, 802, 803, 804, 806, 808, 809, 810, 812, 813, 814, 815, 816, 817, 818, 819, 822, 825, 826, 827, 828, 829, 830, 831, 833, 835, 836, 838, 840, 841, 843, 844, 850, 851, 852, 854, 855, 860, 861, 864, 865, 871, 872, 874, 876, 877, 878, 879, 881, 882, 883, 884, 885, 887, 888, 890, 891, 894, 895, 897, 901, 905, 906, 908, 909, 910, 911, 914, 920, 922, 925, 926, 933, 934, 935, 938, 939, 940, 945, 946, 947, 950, 953, 956, 957, 959, 960, 961, 963, 967, 968, 969, 970, 971, 973, 974, 975, 976, 979, 985, 990, 994, 995, 998, ]
Packed Weights: [228, 304, 115, 230, 69, 266, 230, 207, 92, 207, 190, 115, 230, 115, 69, 228, 304, 207, 38, 342, 92, 46, 69, 342, 38, 138, 46, 184, 207, 230, 228, 228, 228, 76, 161, 190, 184, 230, 207, 228, 304, 207, 207, 230, 115, 230, 304, 266, 161, 69, 76, 304, 342, 46, 23, 230, 266, 161, 228, 92, 38, 380, 76, 207, 38, 76, 69, 152, 228, 46, 76, 184, 380, 161, 23, 342, 69, 190, 190, 138, 152, 342, 228, 304, 38, 69, 152, 92, 161, 304, 115, 38, 152, 266, 207, 190, 304, 266, 190, 46, 115, 184, 190, 115, 207, 46, 266, 184, 115, 152, 304, 207, 38, 161, 69, 46, 152, 114, 184, 46, 266, 342, 38, 161, 230, 380, 184, 161, 230, 92, 69, 38, 92, 304, 266, 46, 114, 228, 190, 38, 228, 190, 190, 380, 207, 152, 266, 92, 207, 266, 230, 38, 304, 38, 228, 115, 266, 92, 69, 190, 23, 184, 115, 76, 114, 380, 76, 92, 46, 380, 115, 342, 380, 190, 266, 266, 92, 207, 38, 69, 207, 184, 38, 342, 114, 23, 152, 46, 230, 230, 138, 207, 230, 380, 138, 342, 304, 138, 184, 38, 228, 23, 380, 115, 23, 76, 342, 115, 184, 46, 115, 152, 190, 23, 266, 92, 115, 46, 161, 46, 184, 207, 207, 23, 115, 230, 23, 207, 115, 230, 184, 230, 23, 69, 23, 230, 207, 69, 138, 115, 138, 92, 115, 161, 184, 161, 69, 69, 46, 138, 184, 92, 69, 69, 138, 184, 115, 92, 115, 23, 23, 161, 23, 230, 161, 69, 115, 230, 161, 184, 69, 161, 230, 230, 184, 207, 69, 161, 92, 115, 23, 23, 115, 115, 46, 115, 69, 115, 69, 161, 138, 46, 46, 92, 184, 69, 69, 46, 230, 23, 184, 138, 69, 207, 92, 161, 46, 69, 92, 69, 184, 184, 184, 69, 138, 23, 115, 92, 138, 23, 207, 92, 23, 46, 23, 138, 207, 23, 230, 230, 161, 230, 69, 92, 230, 184, 92, 207, 184, 46, 230, 184, 46, 115, 46, 184, 230, 230, 138, 46, 184, 161, 230, 115, 23, 230, 161, 115, 69, 69, 115, 115, 207, 230, 161, 69, 184, 184, 92, 46, 23, 207, 92, 230, 69, 115, 138, 161, 92, 23, 69, 230, 46, 138, 23, 138, 115, 138, 23, 230, 161, 23, 161, 138, 23, 184, 69, 23, 92, 230, 46, 207, 207, 92, 207, 23, 46, 184, 115, 46, 115, 138, 230, 92, 115, 92, 184, 115, 138, 92, 184, 115, 69, 23, 161, 138, 69, 207, 46, 207, 92, 92, 230, 207, 92, 138, 230, 23, 184, 138, 161, 46, 207, 115, 184, 138, 23, 207, 207, 92, 138, 46, 46, 92, 46, 46, 207, 161, 138, 230, 230, 115, 46, 115, 115, 92, 115, 230, 92, 230, 138, 161, 92, 69, 230, 46, 161, 46, 207, 69, 92, 184, 69, 184, 161, 230, 69, 161, 92, 46, 46, 92, 92, 115, 23, 69, 138, 230, 138, 23, 207, 115, 92, 207, 207, 138, 46, 184, 115, 161, 230, 115, 69, 207, 115, 230, 92, 46, 115, 46, 184, 138, 69, 138, 23, 46, 184, 69, 23, 69, 69, 161, 23, 115, 230, 207, 92, 23, 230, 115, 23, 138, 138, 92, 184, 161, 92, 69, 92, 207, 69, 184, 23, 184, 23, 207, 69, 138, 23, 207, 46, 92, 207, 184, 115, 23, 207, 69, 207, 207, 184, 184, 23, 23, 230, 92, 23, 184, 46, 46, 92, 138, 184, 207, 92, 92, 161, 161, 69, 138, 138, 184, 115, 207, 161, 92, 184, 69, ]
Time Consuming: 60.01394510269165